&CONTROL
title="Test"
calculation='md',
restart_mode = 'from_scratch',
tprnfor=.t.,
prefix='qe',
pseudo_dir='pseudo'
nstep = 1,
tqmmm = .true.
/

&SYSTEM
ibrav = 1,
celldm(1) = 9.321077825,
celldm(2) = 1.,
celldm(3) = 1.,
celldm(4) = 0.,
celldm(5) = 0.,
celldm(6) = 0.,
nat = 3,
ntyp = 2,
ecutwfc = 80.0 ,
/

&ELECTRONS
conv_thr  = 1.D-6,
/

&IONS
ion_positions = 'default'
/

ATOMIC_SPECIES
O 16.0000 O.pbe-van_bm.UPF
H 1.0000  H.pbe-van_ak.UPF

ATOMIC_POSITIONS angstrom
O 4.92718 4.99809 1.10308
H 5.80905 5.31488 0.90767
H 4.87602 4.14701 0.667997

K_POINTS gamma
